rc1_10_3

VEHICLE
NUMBER   CAPACITY
250     200

CUSTOMER
CUST NO. XCOORD.  YCOORD.  DEMAND  READY TIME DUE DATE  SERVICE TIME

0   250    250     0     0    1821     0
773 472 481 20 0 1491 10
468 494 468 31 0 1484 10
962 468 475 10 313 343 10
104 438 488 18 0 1508 10
499 477 478 20 392 422 10
213 475 480 30 379 409 10
999 470 475 30 0 1497 10
200 475 477 20 0 1492 10
392 493 493 20 856 886 10
3 476 483 10 0 1487 10
939 470 473 10 431 461 10
848 473 475 10 417 447 10
949 477 483 20 366 396 10
651 489 437 29 707 737 10
83 498 456 27 1406 1436 10
290 457 492 7 508 538 10
658 469 489 4 555 585 10
948 481 454 14 0 1503 10
443 471 484 10 340 370 10
